c User generated cnf file
p cnf 8 29
6 -5 3 0 
6 6 -3 0 
7 -1 3 0 
4 -4 8 0 
-5 1 3 0 
2 5 -3 0 
7 -1 2 0 
1 4 -2 0 
7 4 -8 0 
4 3 -3 0 
-2 4 5 0 
-5 1 1 0 
-8 5 6 0 
5 -4 1 0 
5 -1 4 0 
7 -3 7 0 
6 -1 1 0 
-8 2 5 0 
-1 6 1 0 
3 -1 1 0 
3 3 -7 0 
3 -5 4 0 
-7 5 8 0 
4 4 -5 0 
1 -8 5 0 
4 -4 2 0 
-1 8 5 0 
6 1 -8 0 
-3 6 2 0 
